###############################################################
########################## Data set up ########################
###############################################################

data;

set TEAMS := 1 2;
set FLEET[1] := 'a' 'b';
set FLEET[2] := 'A' 'B';

param varrho := 1;
param alpha := 2;
param sigmasqr := 1e-6;

param: x0 y0 maxpow c delta:=
a -0.01 +2 1 5 10
b 0.01 +2 1 5 10
A -1 -1 1 5 10
B +1 -1 1 5 10
;

param eps := 1e-6;
